NAME : TSP_INST.7854435.tour
COMMENT : Length = 7854435
COMMENT : Found by LKH [Keld Helsgaun] Sat Oct 18 11:07:54 2025
TYPE : TOUR
DIMENSION : 100
TOUR_SECTION
1
75
44
100
29
87
5
96
48
37
20
99
83
54
92
2
77
67
25
36
17
62
70
63
39
24
93
82
95
42
57
76
10
52
94
14
43
71
30
16
58
38
34
90
49
33
72
86
11
84
19
79
66
6
73
21
64
80
26
23
46
8
41
88
22
40
91
59
74
50
53
35
13
89
4
15
45
31
32
18
56
55
3
61
28
68
47
7
12
65
51
69
85
98
97
60
27
81
9
78
-1
EOF
